SECTION Graph
Nodes 422
Edges 421

E 2 3002 1
E 2 3084 1
E 2 3263 1
E 2 3267 1
E 63 3001 1
E 63 3011 1
E 63 3069 1
E 63 3097 1
E 63 3157 1
E 63 3162 1
E 63 3225 1
E 76 3001 1
E 76 3003 1
E 76 3032 1
E 76 3143 1
E 76 3249 1
E 76 3275 1
E 102 3001 1
E 102 3092 1
E 102 3113 1
E 102 3121 1
E 102 3228 1
E 177 3261 1
E 177 3300 1
E 205 3001 1
E 205 3031 1
E 205 3051 1
E 205 3095 1
E 205 3120 1
E 205 3192 1
E 205 3209 1
E 207 3001 1
E 207 3021 1
E 207 3043 1
E 207 3226 1
E 207 3244 1
E 207 3282 1
E 248 3001 1
E 248 3004 1
E 248 3074 1
E 248 3144 1
E 248 3224 1
E 282 3016 1
E 282 3293 1
E 283 3001 1
E 283 3098 1
E 283 3127 1
E 297 3002 1
E 297 3029 1
E 297 3055 1
E 297 3107 1
E 297 3163 1
E 301 3002 1
E 301 3007 1
E 301 3200 1
E 499 3002 1
E 499 3076 1
E 524 3002 1
E 524 3018 1
E 524 3216 1
E 525 3002 1
E 525 3134 1
E 525 3194 1
E 594 3002 1
E 594 3238 1
E 594 3255 1
E 619 3001 1
E 619 3013 1
E 619 3027 1
E 619 3236 1
E 624 3001 1
E 624 3166 1
E 624 3190 1
E 624 3248 1
E 632 3001 1
E 632 3195 1
E 666 3175 1
E 666 3290 1
E 682 3205 1
E 682 3290 1
E 686 3002 1
E 686 3207 1
E 686 3285 1
E 688 3002 1
E 688 3189 1
E 731 3002 1
E 731 3135 1
E 741 3002 1
E 741 3060 1
E 755 3002 1
E 755 3086 1
E 755 3269 1
E 755 3276 1
E 755 3284 1
E 755 3288 1
E 764 3002 1
E 764 3083 1
E 799 3001 1
E 799 3131 1
E 799 3167 1
E 799 3176 1
E 874 3002 1
E 874 3064 1
E 874 3183 1
E 874 3203 1
E 882 3001 1
E 882 3010 1
E 882 3014 1
E 882 3171 1
E 882 3173 1
E 882 3202 1
E 882 3212 1
E 882 3217 1
E 890 3002 1
E 890 3251 1
E 895 3174 1
E 895 3300 1
E 944 3254 1
E 944 3300 1
E 1001 3179 1
E 1001 3250 1
E 1001 3300 1
E 1004 3293 1
E 1004 3300 1
E 1008 3061 1
E 1008 3300 1
E 1023 3002 1
E 1023 3155 1
E 1036 3001 1
E 1036 3046 1
E 1036 3088 1
E 1036 3147 1
E 1036 3160 1
E 1036 3215 1
E 1038 3006 1
E 1038 3300 1
E 1050 3001 1
E 1050 3037 1
E 1050 3094 1
E 1050 3247 1
E 1078 3001 1
E 1078 3170 1
E 1078 3172 1
E 1093 3002 1
E 1093 3270 1
E 1118 3001 1
E 1118 3009 1
E 1118 3125 1
E 1118 3237 1
E 1118 3239 1
E 1118 3246 1
E 1118 3291 1
E 1169 3001 1
E 1169 3041 1
E 1169 3115 1
E 1176 3002 1
E 1176 3035 1
E 1176 3290 1
E 1207 3002 1
E 1207 3024 1
E 1209 3111 1
E 1209 3300 1
E 1211 3240 1
E 1211 3300 1
E 1212 3022 1
E 1212 3293 1
E 1268 3279 1
E 1268 3300 1
E 1273 3002 1
E 1273 3256 1
E 1293 3002 1
E 1293 3056 1
E 1293 3138 1
E 1293 3165 1
E 1293 3235 1
E 1307 3001 1
E 1307 3019 1
E 1307 3223 1
E 1307 3286 1
E 1315 3277 1
E 1315 3293 1
E 1318 3001 1
E 1318 3208 1
E 1324 3001 1
E 1324 3038 1
E 1324 3042 1
E 1324 3108 1
E 1324 3272 1
E 1324 3289 1
E 1339 3002 1
E 1339 3266 1
E 1367 3002 1
E 1367 3133 1
E 1374 3001 1
E 1374 3023 1
E 1374 3053 1
E 1384 3001 1
E 1384 3036 1
E 1384 3068 1
E 1384 3188 1
E 1387 3001 1
E 1387 3101 1
E 1387 3128 1
E 1387 3146 1
E 1387 3262 1
E 1399 3001 1
E 1399 3048 1
E 1399 3214 1
E 1422 3001 1
E 1422 3211 1
E 1422 3218 1
E 1428 3002 1
E 1428 3081 1
E 1469 3001 1
E 1469 3017 1
E 1469 3026 1
E 1469 3033 1
E 1469 3219 1
E 1469 3241 1
E 1469 3281 1
E 1469 3292 1
E 1489 3001 1
E 1489 3075 1
E 1489 3145 1
E 1489 3252 1
E 1492 3001 1
E 1492 3034 1
E 1492 3090 1
E 1492 3185 1
E 1566 3066 1
E 1566 3300 1
E 1590 3002 1
E 1590 3169 1
E 1590 3265 1
E 1655 3232 1
E 1655 3300 1
E 1675 3001 1
E 1675 3025 1
E 1675 3110 1
E 1675 3137 1
E 1675 3287 1
E 1676 3001 1
E 1676 3005 1
E 1676 3044 1
E 1676 3199 1
E 1676 3230 1
E 1689 3001 1
E 1689 3028 1
E 1689 3180 1
E 1689 3220 1
E 1689 3245 1
E 1715 3001 1
E 1715 3152 1
E 1715 3264 1
E 1715 3296 1
E 1720 3001 1
E 1720 3196 1
E 1748 3002 1
E 1748 3054 1
E 1769 3002 1
E 1769 3177 1
E 1890 3001 1
E 1890 3257 1
E 1890 3273 1
E 1890 3297 1
E 1893 3001 1
E 1893 3082 1
E 1898 3002 1
E 1898 3062 1
E 1900 3001 1
E 1900 3049 1
E 1900 3050 1
E 1900 3072 1
E 1900 3099 1
E 1900 3154 1
E 1900 3259 1
E 1902 3001 1
E 1902 3077 1
E 1902 3181 1
E 1902 3186 1
E 1902 3268 1
E 1902 3274 1
E 1941 3001 1
E 1941 3106 1
E 1941 3109 1
E 1941 3159 1
E 1941 3193 1
E 1941 3300 1
E 1969 3001 1
E 1969 3243 1
E 1981 3002 1
E 1981 3102 1
E 2032 3001 1
E 2032 3093 1
E 2043 3001 1
E 2043 3012 1
E 2043 3096 1
E 2043 3114 1
E 2043 3221 1
E 2075 3001 1
E 2075 3139 1
E 2075 3153 1
E 2075 3164 1
E 2075 3184 1
E 2075 3187 1
E 2075 3242 1
E 2103 3001 1
E 2103 3002 1
E 2103 3126 1
E 2103 3129 1
E 2103 3130 1
E 2103 3182 1
E 2103 3198 1
E 2120 3001 1
E 2120 3100 1
E 2120 3206 1
E 2120 3260 1
E 2137 3001 1
E 2137 3052 1
E 2137 3210 1
E 2137 3227 1
E 2137 3298 1
E 2176 3001 1
E 2176 3089 1
E 2176 3116 1
E 2176 3149 1
E 2176 3231 1
E 2176 3299 1
E 2193 3001 1
E 2193 3118 1
E 2193 3191 1
E 2262 3002 1
E 2262 3148 1
E 2301 3002 1
E 2301 3117 1
E 2301 3280 1
E 2304 3001 1
E 2304 3079 1
E 2304 3150 1
E 2304 3222 1
E 2344 3091 1
E 2344 3300 1
E 2348 3001 1
E 2348 3063 1
E 2360 3002 1
E 2360 3105 1
E 2400 3001 1
E 2400 3119 1
E 2400 3161 1
E 2400 3204 1
E 2400 3278 1
E 2406 3001 1
E 2406 3070 1
E 2437 3136 1
E 2437 3300 1
E 2492 3002 1
E 2492 3030 1
E 2492 3258 1
E 2513 3001 1
E 2513 3059 1
E 2531 3001 1
E 2531 3047 1
E 2531 3058 1
E 2531 3087 1
E 2551 3002 1
E 2551 3065 1
E 2551 3103 1
E 2567 3271 1
E 2567 3300 1
E 2599 3071 1
E 2599 3293 1
E 2604 3001 1
E 2604 3085 1
E 2635 3001 1
E 2635 3039 1
E 2635 3073 1
E 2635 3112 1
E 2635 3141 1
E 2635 3283 1
E 2656 3001 1
E 2656 3057 1
E 2656 3151 1
E 2711 3001 1
E 2711 3040 1
E 2741 3002 1
E 2741 3067 1
E 2795 3001 1
E 2795 3295 1
E 2848 3158 1
E 2848 3300 1
E 2859 3001 1
E 2859 3020 1
E 2859 3123 1
E 2859 3253 1
E 2887 3001 1
E 2887 3078 1
E 2887 3142 1
E 2887 3234 1
E 2900 3001 1
E 2900 3045 1
E 2900 3104 1
E 2900 3122 1
E 2900 3124 1
E 2900 3140 1
E 2900 3178 1
E 2910 3001 1
E 2910 3008 1
E 2910 3132 1
E 2910 3168 1
E 2910 3201 1
E 2923 3002 1
E 2923 3015 1
E 2923 3233 1
E 2938 3001 1
E 2938 3080 1
E 2953 3001 1
E 2953 3156 1
E 2953 3197 1
E 2953 3213 1
E 2953 3229 1
E 2953 3294 1
END
SECTION Terminals
T 3001
T 3002
T 3003
T 3004
T 3005
T 3006
T 3007
T 3008
T 3009
T 3010
T 3011
T 3012
T 3013
T 3014
T 3015
T 3016
T 3017
T 3018
T 3019
T 3020
T 3021
T 3022
T 3023
T 3024
T 3025
T 3026
T 3027
T 3028
T 3029
T 3030
T 3031
T 3032
T 3033
T 3034
T 3035
T 3036
T 3037
T 3038
T 3039
T 3040
T 3041
T 3042
T 3043
T 3044
T 3045
T 3046
T 3047
T 3048
T 3049
T 3050
T 3051
T 3052
T 3053
T 3054
T 3055
T 3056
T 3057
T 3058
T 3059
T 3060
T 3061
T 3062
T 3063
T 3064
T 3065
T 3066
T 3067
T 3068
T 3069
T 3070
T 3071
T 3072
T 3073
T 3074
T 3075
T 3076
T 3077
T 3078
T 3079
T 3080
T 3081
T 3082
T 3083
T 3084
T 3085
T 3086
T 3087
T 3088
T 3089
T 3090
T 3091
T 3092
T 3093
T 3094
T 3095
T 3096
T 3097
T 3098
T 3099
T 3100
T 3101
T 3102
T 3103
T 3104
T 3105
T 3106
T 3107
T 3108
T 3109
T 3110
T 3111
T 3112
T 3113
T 3114
T 3115
T 3116
T 3117
T 3118
T 3119
T 3120
T 3121
T 3122
T 3123
T 3124
T 3125
T 3126
T 3127
T 3128
T 3129
T 3130
T 3131
T 3132
T 3133
T 3134
T 3135
T 3136
T 3137
T 3138
T 3139
T 3140
T 3141
T 3142
T 3143
T 3144
T 3145
T 3146
T 3147
T 3148
T 3149
T 3150
T 3151
T 3152
T 3153
T 3154
T 3155
T 3156
T 3157
T 3158
T 3159
T 3160
T 3161
T 3162
T 3163
T 3164
T 3165
T 3166
T 3167
T 3168
T 3169
T 3170
T 3171
T 3172
T 3173
T 3174
T 3175
T 3176
T 3177
T 3178
T 3179
T 3180
T 3181
T 3182
T 3183
T 3184
T 3185
T 3186
T 3187
T 3188
T 3189
T 3190
T 3191
T 3192
T 3193
T 3194
T 3195
T 3196
T 3197
T 3198
T 3199
T 3200
T 3201
T 3202
T 3203
T 3204
T 3205
T 3206
T 3207
T 3208
T 3209
T 3210
T 3211
T 3212
T 3213
T 3214
T 3215
T 3216
T 3217
T 3218
T 3219
T 3220
T 3221
T 3222
T 3223
T 3224
T 3225
T 3226
T 3227
T 3228
T 3229
T 3230
T 3231
T 3232
T 3233
T 3234
T 3235
T 3236
T 3237
T 3238
T 3239
T 3240
T 3241
T 3242
T 3243
T 3244
T 3245
T 3246
T 3247
T 3248
T 3249
T 3250
T 3251
T 3252
T 3253
T 3254
T 3255
T 3256
T 3257
T 3258
T 3259
T 3260
T 3261
T 3262
T 3263
T 3264
T 3265
T 3266
T 3267
T 3268
T 3269
T 3270
T 3271
T 3272
T 3273
T 3274
T 3275
T 3276
T 3277
T 3278
T 3279
T 3280
T 3281
T 3282
T 3283
T 3284
T 3285
T 3286
T 3287
T 3288
T 3289
T 3290
T 3291
T 3292
T 3293
T 3294
T 3295
T 3296
T 3297
T 3298
T 3299
T 3300
END
SECTION Cost
421
END
